data/lp_files/pEFS/52_7.lp
\ Model foo
\ LP format - for model browsing. Use MPS format to capture full model detail.
Minimize
  z
Subject To
 allocateEach[1]: x[1,1] + x[2,1] + x[3,1] = 1
 allocateEach[2]: x[1,2] + x[2,2] + x[3,2] = 1
 allocateEach[3]: x[1,3] + x[2,3] + x[3,3] = 1
 allocateEach[4]: x[1,4] + x[2,4] + x[3,4] = 1
 allocateEach[5]: x[1,5] + x[2,5] + x[3,5] = 1
 allocateEach[6]: x[1,6] + x[2,6] + x[3,6] = 1
 allocateEach[7]: x[1,7] + x[2,7] + x[3,7] = 1
 allocateEach[8]: x[1,8] + x[2,8] + x[3,8] = 1
 allocateEach[9]: x[1,9] + x[2,9] + x[3,9] = 1
 allocateEach[10]: x[1,10] + x[2,10] + x[3,10] = 1
 allocateEach[11]: x[1,11] + x[2,11] + x[3,11] = 1
 allocateEach[12]: x[1,12] + x[2,12] + x[3,12] = 1
 allocateAllCash: cashProportion[1] + cashProportion[2] + cashProportion[3]
   = 1
 findWorstP[1,2]: z + 0.0861759425493717 cashProportion[1]
   - 0.0861759425493717 cashProportion[2] + 0.0831885098743268 x[1,1]
   + 0.1267791741472172 x[1,2] + 0.0225637342908438 x[1,3]
   + 0.1311454219030521 x[1,4] + 0.0882585278276481 x[1,5]
   + 0.1149730700179533 x[1,6] + 0.0950951526032316 x[1,7]
   + 0.00583123877917415 x[1,8] + 0.137149012567325 x[1,9]
   + 1.5798922800718134e-04 x[1,10] + 0.0710951526032316 x[1,11]
   + 0.0375870736086176 x[1,12] - 0.0831885098743268 x[2,1]
   - 0.1267791741472172 x[2,2] - 0.0225637342908438 x[2,3]
   - 0.1311454219030521 x[2,4] - 0.0882585278276481 x[2,5]
   - 0.1149730700179533 x[2,6] - 0.0950951526032316 x[2,7]
   - 0.00583123877917415 x[2,8] - 0.137149012567325 x[2,9]
   - 1.5798922800718134e-04 x[2,10] - 0.0710951526032316 x[2,11]
   - 0.0375870736086176 x[2,12] >= 0
 findWorstP[1,3]: z + 0.0861759425493717 cashProportion[1]
   - 0.0861759425493717 cashProportion[3] + 0.0831885098743268 x[1,1]
   + 0.1267791741472172 x[1,2] + 0.0225637342908438 x[1,3]
   + 0.1311454219030521 x[1,4] + 0.0882585278276481 x[1,5]
   + 0.1149730700179533 x[1,6] + 0.0950951526032316 x[1,7]
   + 0.00583123877917415 x[1,8] + 0.137149012567325 x[1,9]
   + 1.5798922800718134e-04 x[1,10] + 0.0710951526032316 x[1,11]
   + 0.0375870736086176 x[1,12] - 0.0831885098743268 x[3,1]
   - 0.1267791741472172 x[3,2] - 0.0225637342908438 x[3,3]
   - 0.1311454219030521 x[3,4] - 0.0882585278276481 x[3,5]
   - 0.1149730700179533 x[3,6] - 0.0950951526032316 x[3,7]
   - 0.00583123877917415 x[3,8] - 0.137149012567325 x[3,9]
   - 1.5798922800718134e-04 x[3,10] - 0.0710951526032316 x[3,11]
   - 0.0375870736086176 x[3,12] >= 0
 findWorstP[2,1]: z - 0.093140222605132 cashProportion[1]
   + 0.093140222605132 cashProportion[2] - 0.0333441996926373 x[1,1]
   - 0.1354103602974278 x[1,2] - 0.0512892159145594 x[1,3]
   - 0.0870395380244959 x[1,4] - 0.1528120585541533 x[1,5]
   - 0.0884211179931387 x[1,6] - 0.0332200127291638 x[1,7]
   - 0.1084462658532421 x[1,8] - 0.0785637777674289 x[1,9]
   - 0.0335149567674133 x[1,10] - 0.0982474114779801 x[1,11]
   - 0.00655086232322762 x[1,12] + 0.0333441996926373 x[2,1]
   + 0.1354103602974278 x[2,2] + 0.0512892159145594 x[2,3]
   + 0.0870395380244959 x[2,4] + 0.1528120585541533 x[2,5]
   + 0.0884211179931387 x[2,6] + 0.0332200127291638 x[2,7]
   + 0.1084462658532421 x[2,8] + 0.0785637777674289 x[2,9]
   + 0.0335149567674133 x[2,10] + 0.0982474114779801 x[2,11]
   + 0.00655086232322762 x[2,12] >= 0
 findWorstP[2,3]: z + 0.093140222605132 cashProportion[2]
   - 0.093140222605132 cashProportion[3] + 0.0333441996926373 x[2,1]
   + 0.1354103602974278 x[2,2] + 0.0512892159145594 x[2,3]
   + 0.0870395380244959 x[2,4] + 0.1528120585541533 x[2,5]
   + 0.0884211179931387 x[2,6] + 0.0332200127291638 x[2,7]
   + 0.1084462658532421 x[2,8] + 0.0785637777674289 x[2,9]
   + 0.0335149567674133 x[2,10] + 0.0982474114779801 x[2,11]
   + 0.00655086232322762 x[2,12] - 0.0333441996926373 x[3,1]
   - 0.1354103602974278 x[3,2] - 0.0512892159145594 x[3,3]
   - 0.0870395380244959 x[3,4] - 0.1528120585541533 x[3,5]
   - 0.0884211179931387 x[3,6] - 0.0332200127291638 x[3,7]
   - 0.1084462658532421 x[3,8] - 0.0785637777674289 x[3,9]
   - 0.0335149567674133 x[3,10] - 0.0982474114779801 x[3,11]
   - 0.00655086232322762 x[3,12] >= 0
 findWorstP[3,1]: z - 0.0976705572105289 cashProportion[1]
   + 0.0976705572105289 cashProportion[3] - 0.0177109277075092 x[1,1]
   - 0.0878058309322655 x[1,2] - 0.0818804837948267 x[1,3]
   - 0.0231642004850971 x[1,4] - 0.1591541729745568 x[1,5]
   - 0.0532630105321418 x[1,6] - 0.013413423190246 x[1,7]
   - 0.1174814018980645 x[1,8] - 0.0614673373378262 x[1,9]
   - 0.0630789015317999 x[1,10] - 0.0710227735182563 x[1,11]
   - 0.1528869788868812 x[1,12] + 0.0177109277075092 x[3,1]
   + 0.0878058309322655 x[3,2] + 0.0818804837948267 x[3,3]
   + 0.0231642004850971 x[3,4] + 0.1591541729745568 x[3,5]
   + 0.0532630105321418 x[3,6] + 0.013413423190246 x[3,7]
   + 0.1174814018980645 x[3,8] + 0.0614673373378262 x[3,9]
   + 0.0630789015317999 x[3,10] + 0.0710227735182563 x[3,11]
   + 0.1528869788868812 x[3,12] >= 0
 findWorstP[3,2]: z - 0.0976705572105289 cashProportion[2]
   + 0.0976705572105289 cashProportion[3] - 0.0177109277075092 x[2,1]
   - 0.0878058309322655 x[2,2] - 0.0818804837948267 x[2,3]
   - 0.0231642004850971 x[2,4] - 0.1591541729745568 x[2,5]
   - 0.0532630105321418 x[2,6] - 0.013413423190246 x[2,7]
   - 0.1174814018980645 x[2,8] - 0.0614673373378262 x[2,9]
   - 0.0630789015317999 x[2,10] - 0.0710227735182563 x[2,11]
   - 0.1528869788868812 x[2,12] + 0.0177109277075092 x[3,1]
   + 0.0878058309322655 x[3,2] + 0.0818804837948267 x[3,3]
   + 0.0231642004850971 x[3,4] + 0.1591541729745568 x[3,5]
   + 0.0532630105321418 x[3,6] + 0.013413423190246 x[3,7]
   + 0.1174814018980645 x[3,8] + 0.0614673373378262 x[3,9]
   + 0.0630789015317999 x[3,10] + 0.0710227735182563 x[3,11]
   + 0.1528869788868812 x[3,12] >= 0
Bounds
 z <= 1
 -infinity <= cashProportion[1] <= 1
 -infinity <= cashProportion[2] <= 1
 -infinity <= cashProportion[3] <= 1
Binaries
 x[1,1] x[1,2] x[1,3] x[1,4] x[1,5] x[1,6] x[1,7] x[1,8] x[1,9] x[1,10]
 x[1,11] x[1,12] x[2,1] x[2,2] x[2,3] x[2,4] x[2,5] x[2,6] x[2,7] x[2,8]
 x[2,9] x[2,10] x[2,11] x[2,12] x[3,1] x[3,2] x[3,3] x[3,4] x[3,5] x[3,6]
 x[3,7] x[3,8] x[3,9] x[3,10] x[3,11] x[3,12]
End
