data/mps_files/q3/52_7.mps
NAME foo
ROWS
 N  OBJ
 E  allocateEach[1]
 E  allocateEach[2]
 E  allocateEach[3]
 E  allocateEach[4]
 E  allocateEach[5]
 E  allocateEach[6]
 E  allocateEach[7]
 E  allocateEach[8]
 E  allocateEach[9]
 E  allocateEach[10]
 E  allocateEach[11]
 E  allocateEach[12]
 E  allocateAllCash
 G  findWorstP[1,2]
 G  findWorstP[1,3]
 G  findWorstP[2,1]
 G  findWorstP[2,3]
 G  findWorstP[3,1]
 G  findWorstP[3,2]
COLUMNS
    z         OBJ       1
    z         findWorstP[1,2]  1
    z         findWorstP[1,3]  1
    z         findWorstP[2,1]  1
    z         findWorstP[2,3]  1
    z         findWorstP[3,1]  1
    z         findWorstP[3,2]  1
    cashProportion[1]  allocateAllCash  1
    cashProportion[1]  findWorstP[1,2]  8.6175942549371651e-02
    cashProportion[1]  findWorstP[1,3]  8.6175942549371651e-02
    cashProportion[1]  findWorstP[2,1]  -9.3140222605132036e-02
    cashProportion[1]  findWorstP[3,1]  -0.0976705572105289
    cashProportion[2]  allocateAllCash  1
    cashProportion[2]  findWorstP[1,2]  -8.6175942549371651e-02
    cashProportion[2]  findWorstP[2,1]  9.3140222605132036e-02
    cashProportion[2]  findWorstP[2,3]  9.3140222605132036e-02
    cashProportion[2]  findWorstP[3,2]  -0.0976705572105289
    cashProportion[3]  allocateAllCash  1
    cashProportion[3]  findWorstP[1,3]  -8.6175942549371651e-02
    cashProportion[3]  findWorstP[2,3]  -9.3140222605132036e-02
    cashProportion[3]  findWorstP[3,1]  0.0976705572105289
    cashProportion[3]  findWorstP[3,2]  0.0976705572105289
    MARKER    'MARKER'                 'INTORG'
    x[1,1]    allocateEach[1]  1
    x[1,1]    findWorstP[1,2]  8.3188509874326758e-02
    x[1,1]    findWorstP[1,3]  8.3188509874326758e-02
    x[1,1]    findWorstP[2,1]  -3.3344199692637265e-02
    x[1,1]    findWorstP[3,1]  -1.7710927707509237e-02
    x[1,2]    allocateEach[2]  1
    x[1,2]    findWorstP[1,2]  1.2677917414721723e-01
    x[1,2]    findWorstP[1,3]  1.2677917414721723e-01
    x[1,2]    findWorstP[2,1]  -1.3541036029742778e-01
    x[1,2]    findWorstP[3,1]  -8.7805830932265461e-02
    x[1,3]    allocateEach[3]  1
    x[1,3]    findWorstP[1,2]  2.2563734290843806e-02
    x[1,3]    findWorstP[1,3]  2.2563734290843806e-02
    x[1,3]    findWorstP[2,1]  -5.1289215914559372e-02
    x[1,3]    findWorstP[3,1]  -8.1880483794826722e-02
    x[1,4]    allocateEach[4]  1
    x[1,4]    findWorstP[1,2]  1.3114542190305206e-01
    x[1,4]    findWorstP[1,3]  1.3114542190305206e-01
    x[1,4]    findWorstP[2,1]  -8.7039538024495877e-02
    x[1,4]    findWorstP[3,1]  -0.0231642004850971
    x[1,5]    allocateEach[5]  1
    x[1,5]    findWorstP[1,2]  8.8258527827648120e-02
    x[1,5]    findWorstP[1,3]  8.8258527827648120e-02
    x[1,5]    findWorstP[2,1]  -1.5281205855415328e-01
    x[1,5]    findWorstP[3,1]  -1.5915417297455683e-01
    x[1,6]    allocateEach[6]  1
    x[1,6]    findWorstP[1,2]  1.1497307001795333e-01
    x[1,6]    findWorstP[1,3]  1.1497307001795333e-01
    x[1,6]    findWorstP[2,1]  -8.8421117993138676e-02
    x[1,6]    findWorstP[3,1]  -5.3263010532141754e-02
    x[1,7]    allocateEach[7]  1
    x[1,7]    findWorstP[1,2]  0.0950951526032316
    x[1,7]    findWorstP[1,3]  0.0950951526032316
    x[1,7]    findWorstP[2,1]  -3.3220012729163757e-02
    x[1,7]    findWorstP[3,1]  -1.3413423190245967e-02
    x[1,8]    allocateEach[8]  1
    x[1,8]    findWorstP[1,2]  5.8312387791741470e-03
    x[1,8]    findWorstP[1,3]  5.8312387791741470e-03
    x[1,8]    findWorstP[2,1]  -1.0844626585324206e-01
    x[1,8]    findWorstP[3,1]  -1.1748140189806450e-01
    x[1,9]    allocateEach[9]  1
    x[1,9]    findWorstP[1,2]  1.3714901256732495e-01
    x[1,9]    findWorstP[1,3]  1.3714901256732495e-01
    x[1,9]    findWorstP[2,1]  -7.8563777767428872e-02
    x[1,9]    findWorstP[3,1]  -6.1467337337826181e-02
    x[1,10]   allocateEach[10]  1
    x[1,10]   findWorstP[1,2]  1.5798922800718134e-04
    x[1,10]   findWorstP[1,3]  1.5798922800718134e-04
    x[1,10]   findWorstP[2,1]  -3.3514956767413340e-02
    x[1,10]   findWorstP[3,1]  -0.0630789015317999
    x[1,11]   allocateEach[11]  1
    x[1,11]   findWorstP[1,2]  0.0710951526032316
    x[1,11]   findWorstP[1,3]  0.0710951526032316
    x[1,11]   findWorstP[2,1]  -0.0982474114779801
    x[1,11]   findWorstP[3,1]  -7.1022773518256255e-02
    x[1,12]   allocateEach[12]  1
    x[1,12]   findWorstP[1,2]  3.7587073608617592e-02
    x[1,12]   findWorstP[1,3]  3.7587073608617592e-02
    x[1,12]   findWorstP[2,1]  -6.5508623232276193e-03
    x[1,12]   findWorstP[3,1]  -1.5288697888688121e-01
    x[2,1]    allocateEach[1]  1
    x[2,1]    findWorstP[1,2]  -8.3188509874326758e-02
    x[2,1]    findWorstP[2,1]  3.3344199692637265e-02
    x[2,1]    findWorstP[2,3]  3.3344199692637265e-02
    x[2,1]    findWorstP[3,2]  -1.7710927707509237e-02
    x[2,2]    allocateEach[2]  1
    x[2,2]    findWorstP[1,2]  -1.2677917414721723e-01
    x[2,2]    findWorstP[2,1]  1.3541036029742778e-01
    x[2,2]    findWorstP[2,3]  1.3541036029742778e-01
    x[2,2]    findWorstP[3,2]  -8.7805830932265461e-02
    x[2,3]    allocateEach[3]  1
    x[2,3]    findWorstP[1,2]  -2.2563734290843806e-02
    x[2,3]    findWorstP[2,1]  5.1289215914559372e-02
    x[2,3]    findWorstP[2,3]  5.1289215914559372e-02
    x[2,3]    findWorstP[3,2]  -8.1880483794826722e-02
    x[2,4]    allocateEach[4]  1
    x[2,4]    findWorstP[1,2]  -1.3114542190305206e-01
    x[2,4]    findWorstP[2,1]  8.7039538024495877e-02
    x[2,4]    findWorstP[2,3]  8.7039538024495877e-02
    x[2,4]    findWorstP[3,2]  -0.0231642004850971
    x[2,5]    allocateEach[5]  1
    x[2,5]    findWorstP[1,2]  -8.8258527827648120e-02
    x[2,5]    findWorstP[2,1]  1.5281205855415328e-01
    x[2,5]    findWorstP[2,3]  1.5281205855415328e-01
    x[2,5]    findWorstP[3,2]  -1.5915417297455683e-01
    x[2,6]    allocateEach[6]  1
    x[2,6]    findWorstP[1,2]  -1.1497307001795333e-01
    x[2,6]    findWorstP[2,1]  8.8421117993138676e-02
    x[2,6]    findWorstP[2,3]  8.8421117993138676e-02
    x[2,6]    findWorstP[3,2]  -5.3263010532141754e-02
    x[2,7]    allocateEach[7]  1
    x[2,7]    findWorstP[1,2]  -0.0950951526032316
    x[2,7]    findWorstP[2,1]  3.3220012729163757e-02
    x[2,7]    findWorstP[2,3]  3.3220012729163757e-02
    x[2,7]    findWorstP[3,2]  -1.3413423190245967e-02
    x[2,8]    allocateEach[8]  1
    x[2,8]    findWorstP[1,2]  -5.8312387791741470e-03
    x[2,8]    findWorstP[2,1]  1.0844626585324206e-01
    x[2,8]    findWorstP[2,3]  1.0844626585324206e-01
    x[2,8]    findWorstP[3,2]  -1.1748140189806450e-01
    x[2,9]    allocateEach[9]  1
    x[2,9]    findWorstP[1,2]  -1.3714901256732495e-01
    x[2,9]    findWorstP[2,1]  7.8563777767428872e-02
    x[2,9]    findWorstP[2,3]  7.8563777767428872e-02
    x[2,9]    findWorstP[3,2]  -6.1467337337826181e-02
    x[2,10]   allocateEach[10]  1
    x[2,10]   findWorstP[1,2]  -1.5798922800718134e-04
    x[2,10]   findWorstP[2,1]  3.3514956767413340e-02
    x[2,10]   findWorstP[2,3]  3.3514956767413340e-02
    x[2,10]   findWorstP[3,2]  -0.0630789015317999
    x[2,11]   allocateEach[11]  1
    x[2,11]   findWorstP[1,2]  -0.0710951526032316
    x[2,11]   findWorstP[2,1]  0.0982474114779801
    x[2,11]   findWorstP[2,3]  0.0982474114779801
    x[2,11]   findWorstP[3,2]  -7.1022773518256255e-02
    x[2,12]   allocateEach[12]  1
    x[2,12]   findWorstP[1,2]  -3.7587073608617592e-02
    x[2,12]   findWorstP[2,1]  6.5508623232276193e-03
    x[2,12]   findWorstP[2,3]  6.5508623232276193e-03
    x[2,12]   findWorstP[3,2]  -1.5288697888688121e-01
    x[3,1]    allocateEach[1]  1
    x[3,1]    findWorstP[1,3]  -8.3188509874326758e-02
    x[3,1]    findWorstP[2,3]  -3.3344199692637265e-02
    x[3,1]    findWorstP[3,1]  1.7710927707509237e-02
    x[3,1]    findWorstP[3,2]  1.7710927707509237e-02
    x[3,2]    allocateEach[2]  1
    x[3,2]    findWorstP[1,3]  -1.2677917414721723e-01
    x[3,2]    findWorstP[2,3]  -1.3541036029742778e-01
    x[3,2]    findWorstP[3,1]  8.7805830932265461e-02
    x[3,2]    findWorstP[3,2]  8.7805830932265461e-02
    x[3,3]    allocateEach[3]  1
    x[3,3]    findWorstP[1,3]  -2.2563734290843806e-02
    x[3,3]    findWorstP[2,3]  -5.1289215914559372e-02
    x[3,3]    findWorstP[3,1]  8.1880483794826722e-02
    x[3,3]    findWorstP[3,2]  8.1880483794826722e-02
    x[3,4]    allocateEach[4]  1
    x[3,4]    findWorstP[1,3]  -1.3114542190305206e-01
    x[3,4]    findWorstP[2,3]  -8.7039538024495877e-02
    x[3,4]    findWorstP[3,1]  0.0231642004850971
    x[3,4]    findWorstP[3,2]  0.0231642004850971
    x[3,5]    allocateEach[5]  1
    x[3,5]    findWorstP[1,3]  -8.8258527827648120e-02
    x[3,5]    findWorstP[2,3]  -1.5281205855415328e-01
    x[3,5]    findWorstP[3,1]  1.5915417297455683e-01
    x[3,5]    findWorstP[3,2]  1.5915417297455683e-01
    x[3,6]    allocateEach[6]  1
    x[3,6]    findWorstP[1,3]  -1.1497307001795333e-01
    x[3,6]    findWorstP[2,3]  -8.8421117993138676e-02
    x[3,6]    findWorstP[3,1]  5.3263010532141754e-02
    x[3,6]    findWorstP[3,2]  5.3263010532141754e-02
    x[3,7]    allocateEach[7]  1
    x[3,7]    findWorstP[1,3]  -0.0950951526032316
    x[3,7]    findWorstP[2,3]  -3.3220012729163757e-02
    x[3,7]    findWorstP[3,1]  1.3413423190245967e-02
    x[3,7]    findWorstP[3,2]  1.3413423190245967e-02
    x[3,8]    allocateEach[8]  1
    x[3,8]    findWorstP[1,3]  -5.8312387791741470e-03
    x[3,8]    findWorstP[2,3]  -1.0844626585324206e-01
    x[3,8]    findWorstP[3,1]  1.1748140189806450e-01
    x[3,8]    findWorstP[3,2]  1.1748140189806450e-01
    x[3,9]    allocateEach[9]  1
    x[3,9]    findWorstP[1,3]  -1.3714901256732495e-01
    x[3,9]    findWorstP[2,3]  -7.8563777767428872e-02
    x[3,9]    findWorstP[3,1]  6.1467337337826181e-02
    x[3,9]    findWorstP[3,2]  6.1467337337826181e-02
    x[3,10]   allocateEach[10]  1
    x[3,10]   findWorstP[1,3]  -1.5798922800718134e-04
    x[3,10]   findWorstP[2,3]  -3.3514956767413340e-02
    x[3,10]   findWorstP[3,1]  0.0630789015317999
    x[3,10]   findWorstP[3,2]  0.0630789015317999
    x[3,11]   allocateEach[11]  1
    x[3,11]   findWorstP[1,3]  -0.0710951526032316
    x[3,11]   findWorstP[2,3]  -0.0982474114779801
    x[3,11]   findWorstP[3,1]  7.1022773518256255e-02
    x[3,11]   findWorstP[3,2]  7.1022773518256255e-02
    x[3,12]   allocateEach[12]  1
    x[3,12]   findWorstP[1,3]  -3.7587073608617592e-02
    x[3,12]   findWorstP[2,3]  -6.5508623232276193e-03
    x[3,12]   findWorstP[3,1]  1.5288697888688121e-01
    x[3,12]   findWorstP[3,2]  1.5288697888688121e-01
    MARKER    'MARKER'                 'INTEND'
RHS
    RHS1      allocateEach[1]  1
    RHS1      allocateEach[2]  1
    RHS1      allocateEach[3]  1
    RHS1      allocateEach[4]  1
    RHS1      allocateEach[5]  1
    RHS1      allocateEach[6]  1
    RHS1      allocateEach[7]  1
    RHS1      allocateEach[8]  1
    RHS1      allocateEach[9]  1
    RHS1      allocateEach[10]  1
    RHS1      allocateEach[11]  1
    RHS1      allocateEach[12]  1
    RHS1      allocateAllCash  1
BOUNDS
 UP BND1      z         1
 MI BND1      cashProportion[1]
 UP BND1      cashProportion[1]  1
 MI BND1      cashProportion[2]
 UP BND1      cashProportion[2]  1
 MI BND1      cashProportion[3]
 UP BND1      cashProportion[3]  1
 BV BND1      x[1,1]  
 BV BND1      x[1,2]  
 BV BND1      x[1,3]  
 BV BND1      x[1,4]  
 BV BND1      x[1,5]  
 BV BND1      x[1,6]  
 BV BND1      x[1,7]  
 BV BND1      x[1,8]  
 BV BND1      x[1,9]  
 BV BND1      x[1,10] 
 BV BND1      x[1,11] 
 BV BND1      x[1,12] 
 BV BND1      x[2,1]  
 BV BND1      x[2,2]  
 BV BND1      x[2,3]  
 BV BND1      x[2,4]  
 BV BND1      x[2,5]  
 BV BND1      x[2,6]  
 BV BND1      x[2,7]  
 BV BND1      x[2,8]  
 BV BND1      x[2,9]  
 BV BND1      x[2,10] 
 BV BND1      x[2,11] 
 BV BND1      x[2,12] 
 BV BND1      x[3,1]  
 BV BND1      x[3,2]  
 BV BND1      x[3,3]  
 BV BND1      x[3,4]  
 BV BND1      x[3,5]  
 BV BND1      x[3,6]  
 BV BND1      x[3,7]  
 BV BND1      x[3,8]  
 BV BND1      x[3,9]  
 BV BND1      x[3,10] 
 BV BND1      x[3,11] 
 BV BND1      x[3,12] 
ENDATA
